sat
(:binary-propagations  400
 :decisions            1418
 :del-clause           200
 :final-checks         14
 :max-generation       1
 :max-memory           24.88
 :memory               21.49
 :mk-bool-var          1000
 :mk-clause            300
 :mk-clause-binary     600
 :num-allocs           39715592
 :num-checks           1
 :propagations         1004
 :quant-instantiations 200
 :restarts             13
 :rlimit-count         860710
 :time                 0.10)
